SDVRP instances/custom_instances/p10_13_splitx10_0.vrp
NAME:p10_13_splitx10_
BEST_KNOWN: 0
COMMENT: 0
DIMENSION: 921
CAPACITY: 2000
EDGE_WEIGHT_FORMAT: FUNCTION
EDGE_WEIGHT_TYPE: EXACT_2D
NODE_COORD_SECTION
1 0.00000 0.00000
2 -11 1
3 -11 1
4 -11 1
5 -11 1
6 -11 1
7 35 -3
8 35 -3
9 35 -3
10 35 -3
11 35 -3
12 35 -3
13 35 -3
14 25 -43
15 25 -43
16 25 -43
17 25 -43
18 29 47
19 29 47
20 29 47
21 29 47
22 29 47
23 29 47
24 29 47
25 -8 -5
26 -8 -5
27 -8 -5
28 -8 -5
29 -8 -5
30 -8 -5
31 -8 -5
32 -8 -5
33 7 38
34 7 38
35 7 38
36 7 38
37 7 38
38 -34 -47
39 -34 -47
40 -34 -47
41 -40 0
42 -40 0
43 -40 0
44 -40 0
45 -40 0
46 -40 0
47 -40 0
48 -40 0
49 -19 7
50 -19 7
51 -25 -9
52 -25 -9
53 -25 -9
54 -25 -9
55 -9 42
56 -9 42
57 -9 42
58 -3 44
59 -3 44
60 -3 44
61 -3 44
62 -33 16
63 -33 16
64 -33 16
65 -25 -31
66 -25 -31
67 -25 -31
68 -25 -31
69 -25 -31
70 -25 -31
71 -25 -31
72 28 -18
73 28 -18
74 28 -18
75 28 -18
76 28 -18
77 32 20
78 32 20
79 32 20
80 17 -38
81 17 -38
82 17 -38
83 17 -38
84 2 22
85 2 22
86 2 22
87 2 22
88 2 22
89 2 22
90 2 22
91 -42 49
92 -42 49
93 -42 49
94 -42 49
95 -42 49
96 10 19
97 10 19
98 10 19
99 -9 23
100 -9 23
101 -9 23
102 -9 23
103 -9 23
104 25 10
105 25 10
106 25 10
107 25 10
108 25 10
109 25 10
110 -38 45
111 -38 45
112 -38 45
113 -38 45
114 -50 11
115 -50 11
116 -50 11
117 -50 11
118 -50 11
119 -50 11
120 -50 11
121 -45 43
122 -45 43
123 -45 43
124 -45 43
125 -45 43
126 -2 11
127 -2 11
128 -2 11
129 -2 11
130 14 9
131 14 9
132 14 9
133 14 9
134 28 -42
135 28 -42
136 28 -42
137 43 7
138 43 7
139 43 7
140 43 7
141 43 7
142 43 7
143 49 48
144 49 48
145 49 48
146 49 48
147 12 -13
148 12 -13
149 12 -13
150 12 -13
151 12 -13
152 12 -13
153 12 -13
154 41 -15
155 41 -15
156 41 -15
157 41 -15
158 9 -49
159 9 -49
160 9 -49
161 9 -49
162 9 -49
163 -29 -49
164 -29 -49
165 -29 -49
166 -29 -49
167 -46 20
168 -46 20
169 -46 20
170 -46 20
171 35 -7
172 35 -7
173 35 -7
174 35 -7
175 35 -7
176 35 -7
177 29 -24
178 29 -24
179 29 -24
180 29 -24
181 29 -24
182 29 -24
183 29 -24
184 -3 20
185 -3 20
186 -3 20
187 -3 20
188 -3 20
189 -3 20
190 -3 20
191 -3 20
192 23 15
193 23 15
194 23 15
195 23 15
196 21 5
197 21 5
198 21 5
199 -23 17
200 -23 17
201 -23 17
202 -23 17
203 -23 17
204 24 -1
205 24 -1
206 24 -1
207 24 -1
208 24 -1
209 24 -1
210 24 -1
211 -26 0
212 -26 0
213 -26 0
214 -26 0
215 -26 0
216 -26 0
217 -26 0
218 1 12
219 1 12
220 1 12
221 1 12
222 1 12
223 1 12
224 37 28
225 37 28
226 37 28
227 37 28
228 -30 -11
229 -30 -11
230 -30 -11
231 -30 -11
232 -30 -11
233 -39 -38
234 -39 -38
235 -39 -38
236 -39 -38
237 -29 -33
238 -29 -33
239 -29 -33
240 -29 -33
241 -29 -33
242 -16 -28
243 -16 -28
244 -16 -28
245 49 37
246 49 37
247 49 37
248 49 37
249 36 -39
250 36 -39
251 36 -39
252 36 -39
253 36 -39
254 34 -3
255 34 -3
256 34 -3
257 34 -3
258 34 -3
259 34 -3
260 34 -3
261 5 -38
262 5 -38
263 5 -38
264 5 -38
265 5 -38
266 25 -32
267 25 -32
268 25 -32
269 25 -32
270 25 -32
271 25 -32
272 25 -32
273 -1 12
274 -1 12
275 -1 12
276 -44 -38
277 -44 -38
278 -44 -38
279 -44 -38
280 -44 -38
281 -44 -38
282 -26 5
283 -26 5
284 -26 5
285 -26 5
286 3 -41
287 3 -41
288 20 -8
289 20 -8
290 20 -8
291 20 -8
292 20 -8
293 -19 5
294 -19 5
295 -19 5
296 -19 5
297 8 -11
298 8 -11
299 8 -11
300 8 -11
301 8 -11
302 -8 -1
303 -8 -1
304 -8 -1
305 24 41
306 24 41
307 24 41
308 -18 -42
309 -18 -42
310 -18 -42
311 -18 -42
312 -18 -42
313 -18 -42
314 -11 -19
315 -11 -19
316 -11 -19
317 -11 -19
318 -11 -19
319 -11 -19
320 -11 -19
321 -41 -1
322 -41 -1
323 -41 -1
324 -41 -1
325 -41 -1
326 36 5
327 36 5
328 36 5
329 36 5
330 36 5
331 36 5
332 23 -48
333 23 -48
334 23 -48
335 34 44
336 34 44
337 34 44
338 34 44
339 7 -40
340 7 -40
341 7 -40
342 7 -40
343 16 -16
344 16 -16
345 37 1
346 37 1
347 -47 -38
348 -47 -38
349 -47 -38
350 34 -33
351 34 -33
352 34 -33
353 34 -33
354 34 -33
355 34 -33
356 34 -33
357 2 -5
358 2 -5
359 2 -5
360 -22 7
361 -22 7
362 -22 7
363 -22 7
364 -22 7
365 -22 7
366 50 -37
367 50 -37
368 50 -37
369 50 -37
370 50 -37
371 50 -37
372 -7 46
373 -7 46
374 -7 46
375 -7 46
376 -7 46
377 16 5
378 16 5
379 -2 -24
380 -2 -24
381 -2 -24
382 -2 -24
383 -2 -24
384 -2 -24
385 -36 27
386 -36 27
387 -36 27
388 -36 27
389 -36 27
390 16 49
391 16 49
392 16 49
393 16 49
394 16 49
395 -20 47
396 -20 47
397 -20 47
398 -20 47
399 25 46
400 25 46
401 25 46
402 25 46
403 25 46
404 25 46
405 -47 27
406 -47 27
407 7 14
408 7 14
409 7 14
410 7 14
411 7 14
412 -50 16
413 -50 16
414 -50 16
415 -50 16
416 -50 16
417 -50 16
418 -50 16
419 -45 42
420 -45 42
421 -45 42
422 -45 42
423 -45 42
424 -45 42
425 -45 42
426 -32 29
427 -32 29
428 15 18
429 15 18
430 -41 -49
431 -41 -49
432 -41 -49
433 -41 -49
434 -41 -49
435 -45 25
436 -45 25
437 -45 25
438 -49 -8
439 -49 -8
440 9 37
441 9 37
442 9 37
443 9 37
444 9 37
445 9 37
446 39 48
447 39 48
448 39 48
449 39 48
450 39 48
451 -30 -10
452 -30 -10
453 -30 -10
454 22 37
455 22 37
456 22 37
457 -19 -28
458 -19 -28
459 -19 -28
460 -18 -42
461 -18 -42
462 -18 -42
463 -17 33
464 -17 33
465 -17 33
466 -17 33
467 -17 33
468 -17 33
469 -17 33
470 1 -6
471 1 -6
472 1 -6
473 1 -6
474 1 -6
475 -29 30
476 -29 30
477 17 3
478 17 3
479 17 3
480 17 3
481 17 3
482 17 3
483 -3 14
484 -3 14
485 -3 14
486 -3 14
487 -3 14
488 -3 14
489 -3 14
490 42 48
491 42 48
492 42 48
493 42 48
494 42 48
495 42 48
496 42 48
497 48 46
498 48 46
499 48 46
500 -9 9
501 18 40
502 18 40
503 18 40
504 18 40
505 18 40
506 18 40
507 -23 11
508 -23 11
509 -23 11
510 -23 11
511 -23 11
512 -22 49
513 -22 49
514 -22 49
515 -22 49
516 -22 49
517 -22 49
518 -30 34
519 -30 34
520 -30 34
521 -11 -45
522 -11 -45
523 -11 -45
524 -11 -45
525 -11 -45
526 -11 -45
527 37 -8
528 37 -8
529 37 -8
530 -25 -5
531 -25 -5
532 -25 -5
533 -25 -5
534 -25 -5
535 0 -5
536 0 -5
537 0 -5
538 0 -5
539 -30 -1
540 -30 -1
541 -30 -1
542 -30 -1
543 -30 -1
544 17 -44
545 17 -44
546 17 -44
547 17 -44
548 17 -44
549 -4 12
550 -4 12
551 -4 12
552 -4 12
553 34 44
554 34 44
555 34 44
556 34 44
557 34 44
558 34 44
559 34 44
560 -15 -5
561 -15 -5
562 -15 -5
563 -15 -5
564 -17 -15
565 10 14
566 10 14
567 10 14
568 10 14
569 10 14
570 10 14
571 7 40
572 7 40
573 7 40
574 7 40
575 -5 27
576 -5 27
577 -5 27
578 -5 27
579 -5 27
580 -5 27
581 -40 -46
582 -40 -46
583 5 46
584 5 46
585 -29 9
586 -29 9
587 -49 -20
588 -49 -20
589 -49 -20
590 24 -24
591 24 -24
592 24 -24
593 24 -24
594 24 -24
595 24 -24
596 -16 22
597 -16 22
598 -16 22
599 -16 22
600 -16 22
601 -16 22
602 36 -29
603 36 -29
604 36 -29
605 -13 19
606 -13 19
607 -13 19
608 10 13
609 10 13
610 10 13
611 10 13
612 10 13
613 10 13
614 10 13
615 -9 -29
616 -9 -29
617 -9 -29
618 -9 -29
619 -9 -29
620 -9 -29
621 -9 -29
622 -9 -29
623 -27 29
624 -27 29
625 -27 29
626 -27 29
627 -27 29
628 -27 29
629 -27 29
630 -3 21
631 -3 21
632 -3 21
633 -3 21
634 -3 21
635 -15 28
636 -15 28
637 -15 28
638 -15 28
639 -15 28
640 -15 28
641 -15 28
642 -24 -27
643 -24 -27
644 -24 -27
645 29 14
646 29 14
647 29 14
648 29 14
649 -40 12
650 -40 12
651 14 -16
652 14 -16
653 14 -16
654 -3 8
655 -3 8
656 -3 8
657 -48 41
658 -48 41
659 -18 45
660 -18 45
661 -18 45
662 18 -8
663 18 -8
664 -32 47
665 -32 47
666 -32 47
667 -32 47
668 -39 36
669 -39 36
670 -39 36
671 -29 -12
672 -29 -12
673 -29 -12
674 -29 -12
675 -29 -12
676 25 -7
677 25 -7
678 25 -7
679 25 -7
680 25 -7
681 1 -15
682 1 -15
683 1 -15
684 14 46
685 14 46
686 14 46
687 30 -10
688 30 -10
689 30 -10
690 30 -10
691 1 -13
692 1 -13
693 1 -13
694 46 30
695 46 30
696 46 30
697 46 30
698 -44 13
699 -44 13
700 -44 13
701 -44 13
702 -23 2
703 -23 2
704 -23 2
705 -23 2
706 -23 2
707 -23 2
708 -15 -41
709 -15 -41
710 -15 -41
711 -15 -41
712 -15 -41
713 -15 -41
714 48 16
715 48 16
716 48 16
717 48 16
718 48 16
719 48 16
720 5 13
721 5 13
722 5 13
723 5 13
724 -39 -3
725 -39 -3
726 -39 -3
727 -39 -3
728 -39 -3
729 -39 -3
730 28 -25
731 28 -25
732 28 -25
733 28 -25
734 28 -25
735 -30 -37
736 -30 -37
737 -30 -37
738 -30 -37
739 -30 -37
740 -30 -37
741 23 -47
742 23 -47
743 23 -47
744 23 -47
745 23 -47
746 23 -47
747 35 3
748 -38 -44
749 -38 -44
750 -38 -44
751 -38 -44
752 -38 -44
753 -7 25
754 -7 25
755 -7 25
756 -7 25
757 -7 25
758 8 -33
759 8 -33
760 8 -33
761 8 -33
762 8 -33
763 44 39
764 44 39
765 44 39
766 44 39
767 44 39
768 44 39
769 44 39
770 1 16
771 1 16
772 1 16
773 41 22
774 41 22
775 41 22
776 41 22
777 41 22
778 41 22
779 41 22
780 20 -2
781 20 -2
782 20 -2
783 -10 26
784 -10 26
785 -10 26
786 -10 26
787 -10 26
788 -10 26
789 -10 26
790 -3 -35
791 -3 -35
792 29 -17
793 29 -17
794 29 -17
795 29 -17
796 29 -17
797 -24 -43
798 -24 -43
799 -24 -43
800 -24 -43
801 -24 -43
802 -2 11
803 -2 11
804 -2 11
805 -23 -36
806 -23 -36
807 -23 -36
808 -23 -36
809 -23 -36
810 -23 -36
811 -23 -36
812 -23 -36
813 -1 -43
814 -1 -43
815 -1 -43
816 -1 -43
817 -1 -43
818 -1 -43
819 -1 -43
820 39 18
821 39 18
822 39 18
823 39 18
824 39 18
825 39 18
826 -45 -49
827 -45 -49
828 -45 -49
829 -38 42
830 -38 42
831 -38 42
832 -38 42
833 -1 11
834 -1 11
835 -1 11
836 -1 11
837 -1 11
838 -1 11
839 -35 49
840 -35 49
841 -35 49
842 -35 49
843 -35 49
844 -35 49
845 -35 49
846 -35 49
847 42 -45
848 42 -45
849 42 -45
850 42 -45
851 -36 41
852 -36 41
853 -36 41
854 -36 41
855 -36 41
856 -26 -1
857 -26 -1
858 -26 -1
859 -18 37
860 -18 37
861 -18 37
862 -18 37
863 -18 37
864 -18 37
865 -18 37
866 17 -21
867 17 -21
868 17 -21
869 -29 37
870 -29 37
871 -29 37
872 -29 37
873 -29 37
874 -29 37
875 -43 -8
876 -43 -8
877 -43 -8
878 -43 -8
879 -43 -8
880 -43 -8
881 -43 -8
882 16 4
883 16 4
884 16 4
885 16 4
886 -16 -39
887 -16 -39
888 -16 -39
889 -16 -39
890 -16 -39
891 -16 -39
892 -16 -39
893 -16 -39
894 -25 10
895 -25 10
896 -25 10
897 -25 10
898 -25 10
899 -8 -26
900 -8 -26
901 -8 -26
902 -8 -26
903 6 20
904 6 20
905 37 20
906 37 20
907 -1 -10
908 -1 -10
909 -1 -10
910 16 -8
911 16 -8
912 16 -8
913 16 -8
914 16 -8
915 16 -8
916 29 -35
917 29 -35
918 29 -35
919 29 -35
920 29 -35
921 29 -35
DEMAND_SECTION
1 0
2 200
3 20
4 20
5 20
6 10
7 400
8 100
9 20
10 20
11 20
12 20
13 10
14 400
15 200
16 20
17 10
18 400
19 200
20 100
21 20
22 20
23 20
24 20
25 400
26 200
27 100
28 20
29 20
30 20
31 20
32 10
33 400
34 200
35 100
36 20
37 10
38 400
39 200
40 20
41 400
42 200
43 100
44 20
45 20
46 20
47 20
48 10
49 400
50 100
51 400
52 20
53 20
54 10
55 400
56 20
57 10
58 400
59 400
60 20
61 10
62 200
63 100
64 20
65 400
66 400
67 100
68 20
69 20
70 20
71 10
72 200
73 100
74 20
75 20
76 10
77 400
78 400
79 10
80 400
81 20
82 20
83 10
84 400
85 200
86 100
87 20
88 20
89 20
90 20
91 400
92 400
93 20
94 20
95 10
96 400
97 400
98 20
99 400
100 400
101 100
102 20
103 10
104 400
105 100
106 20
107 20
108 20
109 20
110 200
111 20
112 20
113 10
114 400
115 200
116 100
117 20
118 20
119 20
120 20
121 400
122 200
123 100
124 20
125 20
126 200
127 100
128 20
129 20
130 400
131 400
132 100
133 20
134 400
135 400
136 200
137 400
138 100
139 20
140 20
141 20
142 20
143 400
144 200
145 100
146 10
147 400
148 200
149 100
150 20
151 20
152 20
153 20
154 400
155 100
156 20
157 10
158 200
159 20
160 20
161 20
162 20
163 200
164 20
165 20
166 10
167 400
168 400
169 20
170 10
171 400
172 200
173 20
174 20
175 20
176 20
177 400
178 400
179 100
180 20
181 20
182 20
183 20
184 400
185 400
186 100
187 20
188 20
189 20
190 20
191 10
192 400
193 100
194 20
195 10
196 400
197 400
198 10
199 400
200 20
201 20
202 20
203 10
204 400
205 400
206 100
207 20
208 20
209 20
210 20
211 400
212 100
213 20
214 20
215 20
216 20
217 10
218 400
219 200
220 20
221 20
222 20
223 10
224 200
225 100
226 20
227 10
228 400
229 100
230 20
231 20
232 10
233 400
234 200
235 100
236 20
237 400
238 20
239 20
240 20
241 20
242 400
243 200
244 10
245 400
246 20
247 20
248 20
249 400
250 200
251 20
252 20
253 10
254 400
255 200
256 20
257 20
258 20
259 20
260 10
261 400
262 400
263 100
264 20
265 20
266 400
267 200
268 100
269 20
270 20
271 20
272 20
273 400
274 200
275 100
276 200
277 20
278 20
279 20
280 20
281 10
282 200
283 20
284 20
285 20
286 400
287 400
288 400
289 400
290 20
291 20
292 20
293 400
294 100
295 20
296 10
297 400
298 20
299 20
300 20
301 20
302 400
303 20
304 10
305 400
306 400
307 100
308 400
309 200
310 20
311 20
312 20
313 10
314 400
315 100
316 20
317 20
318 20
319 20
320 10
321 400
322 200
323 100
324 20
325 10
326 400
327 400
328 20
329 20
330 20
331 10
332 400
333 200
334 20
335 200
336 20
337 20
338 10
339 400
340 400
341 100
342 20
343 400
344 10
345 400
346 200
347 400
348 200
349 20
350 400
351 200
352 100
353 20
354 20
355 20
356 20
357 400
358 100
359 20
360 400
361 400
362 20
363 20
364 20
365 20
366 400
367 400
368 20
369 20
370 20
371 10
372 400
373 400
374 100
375 20
376 20
377 400
378 10
379 400
380 20
381 20
382 20
383 20
384 10
385 200
386 100
387 20
388 20
389 20
390 400
391 20
392 20
393 20
394 20
395 400
396 20
397 20
398 20
399 200
400 100
401 20
402 20
403 20
404 20
405 200
406 100
407 400
408 200
409 20
410 20
411 10
412 400
413 200
414 20
415 20
416 20
417 20
418 10
419 400
420 200
421 100
422 20
423 20
424 20
425 20
426 400
427 200
428 200
429 100
430 400
431 20
432 20
433 20
434 10
435 400
436 20
437 20
438 400
439 20
440 400
441 400
442 20
443 20
444 20
445 10
446 200
447 100
448 20
449 20
450 10
451 400
452 20
453 20
454 400
455 20
456 10
457 400
458 200
459 100
460 400
461 200
462 20
463 400
464 400
465 100
466 20
467 20
468 20
469 20
470 400
471 400
472 100
473 20
474 20
475 400
476 100
477 400
478 400
479 100
480 20
481 20
482 10
483 200
484 100
485 20
486 20
487 20
488 20
489 10
490 400
491 400
492 100
493 20
494 20
495 20
496 20
497 200
498 100
499 20
500 400
501 200
502 20
503 20
504 20
505 20
506 10
507 400
508 200
509 100
510 20
511 10
512 400
513 200
514 20
515 20
516 20
517 20
518 400
519 20
520 20
521 200
522 100
523 20
524 20
525 20
526 20
527 400
528 100
529 20
530 200
531 20
532 20
533 20
534 10
535 200
536 20
537 20
538 20
539 400
540 100
541 20
542 20
543 20
544 400
545 100
546 20
547 20
548 20
549 400
550 400
551 100
552 20
553 400
554 400
555 20
556 20
557 20
558 20
559 10
560 400
561 400
562 100
563 20
564 400
565 400
566 400
567 20
568 20
569 20
570 10
571 400
572 400
573 100
574 10
575 400
576 400
577 100
578 20
579 20
580 20
581 400
582 100
583 400
584 100
585 400
586 10
587 200
588 100
589 20
590 400
591 100
592 20
593 20
594 20
595 20
596 400
597 100
598 20
599 20
600 20
601 20
602 400
603 400
604 100
605 400
606 100
607 20
608 200
609 100
610 20
611 20
612 20
613 20
614 10
615 400
616 200
617 100
618 20
619 20
620 20
621 20
622 10
623 400
624 200
625 20
626 20
627 20
628 20
629 10
630 400
631 400
632 100
633 20
634 20
635 400
636 400
637 100
638 20
639 20
640 20
641 10
642 400
643 400
644 200
645 200
646 20
647 20
648 10
649 400
650 100
651 400
652 100
653 20
654 200
655 100
656 20
657 400
658 10
659 200
660 100
661 10
662 400
663 400
664 200
665 100
666 20
667 10
668 400
669 100
670 20
671 200
672 100
673 20
674 20
675 20
676 400
677 400
678 20
679 20
680 10
681 400
682 200
683 10
684 400
685 400
686 20
687 400
688 200
689 20
690 10
691 400
692 100
693 20
694 400
695 100
696 20
697 10
698 400
699 20
700 20
701 10
702 400
703 200
704 20
705 20
706 20
707 10
708 200
709 100
710 20
711 20
712 20
713 10
714 400
715 400
716 20
717 20
718 20
719 20
720 200
721 100
722 20
723 20
724 400
725 20
726 20
727 20
728 20
729 10
730 400
731 400
732 100
733 20
734 10
735 200
736 100
737 20
738 20
739 20
740 20
741 400
742 100
743 20
744 20
745 20
746 20
747 400
748 200
749 20
750 20
751 20
752 10
753 200
754 100
755 20
756 20
757 20
758 400
759 200
760 20
761 20
762 10
763 400
764 400
765 100
766 20
767 20
768 20
769 10
770 400
771 200
772 100
773 400
774 200
775 100
776 20
777 20
778 20
779 10
780 400
781 400
782 200
783 400
784 200
785 100
786 20
787 20
788 20
789 10
790 400
791 100
792 400
793 20
794 20
795 20
796 20
797 400
798 200
799 20
800 20
801 20
802 400
803 200
804 20
805 400
806 200
807 100
808 20
809 20
810 20
811 20
812 10
813 200
814 100
815 20
816 20
817 20
818 20
819 10
820 400
821 400
822 100
823 20
824 20
825 20
826 200
827 100
828 20
829 200
830 100
831 20
832 20
833 400
834 100
835 20
836 20
837 20
838 20
839 400
840 400
841 100
842 20
843 20
844 20
845 20
846 10
847 400
848 100
849 20
850 10
851 200
852 20
853 20
854 20
855 10
856 200
857 100
858 20
859 400
860 100
861 20
862 20
863 20
864 20
865 10
866 400
867 400
868 200
869 400
870 400
871 100
872 20
873 20
874 20
875 400
876 400
877 100
878 20
879 20
880 20
881 10
882 400
883 200
884 100
885 20
886 400
887 200
888 100
889 20
890 20
891 20
892 20
893 10
894 400
895 20
896 20
897 20
898 10
899 400
900 200
901 20
902 20
903 400
904 20
905 400
906 400
907 400
908 20
909 10
910 200
911 20
912 20
913 20
914 20
915 10
916 200
917 100
918 20
919 20
920 20
921 10
DEPOT_SECTION
1
-1
EOF