SDVRP instances/custom_instances/p10_13_splitx10_0.sol
920 -3 4 2 703 704 705 702 706 211 213 215 210 214 216 212 538 540 542 539 541 857 855 856 -5 1 701 284 282 283 281 893 506 509 507 508 510 -14 15 13 16 741 745 742 743 744 740 331 333 332 545 544 80 82 358 -27 29 28 30 24 26 31 25 559 560 301 -32 34 36 583 582 57 58 60 59 485 483 487 486 -35 33 573 572 570 571 439 440 441 442 444 443 -38 432 430 431 429 433 825 826 827 581 580 750 751 747 748 749 238 240 643 -42 45 46 47 44 43 40 41 324 320 322 323 321 724 728 726 723 303 302 -49 48 363 359 360 362 361 364 295 294 292 293 -53 52 51 50 673 672 670 228 230 231 227 229 451 452 450 530 533 529 532 531 -65 64 641 642 563 -67 70 66 68 69 239 236 237 739 736 737 37 39 163 164 165 162 799 798 796 800 797 -72 75 71 794 795 793 792 791 686 689 676 675 -74 73 368 369 367 370 366 365 849 846 847 848 252 250 248 918 916 920 -79 81 546 543 547 157 158 159 161 160 818 812 813 817 816 814 815 286 537 -87 83 89 84 86 85 88 575 577 576 574 578 579 488 482 484 -96 97 95 903 902 769 771 770 -101 99 102 787 786 784 788 54 56 55 372 371 373 375 374 -103 196 195 476 477 -113 117 114 119 115 118 116 412 414 417 411 416 415 413 700 699 698 697 -128 127 801 125 802 550 551 549 548 653 655 -129 132 131 130 377 376 881 882 -133 135 134 917 915 269 266 268 270 271 267 265 -149 152 151 150 919 251 249 355 351 349 353 352 350 354 603 601 602 -167 169 168 166 434 435 436 404 405 385 386 384 387 388 -172 175 173 171 170 174 527 526 528 154 153 156 155 688 687 677 679 678 -180 182 181 179 177 176 178 732 729 731 730 733 -190 183 184 185 187 188 189 186 630 629 633 632 631 -193 192 191 194 78 76 77 427 428 611 609 607 608 610 -200 199 201 202 198 61 62 63 649 648 584 585 894 897 895 896 -209 205 207 206 203 204 208 781 780 779 -222 221 220 218 217 219 272 273 274 832 834 836 833 837 835 -224 225 223 226 497 498 496 143 144 142 145 490 495 492 493 491 494 -258 259 256 253 255 254 257 10 6 8 9 11 12 7 344 345 -260 340 338 339 341 760 761 758 759 757 -287 291 290 289 288 661 662 911 912 909 910 913 914 -298 650 652 651 261 262 264 263 285 790 789 379 -304 305 21 18 17 23 22 20 19 401 400 398 403 402 399 501 -306 445 449 448 446 447 489 337 555 336 554 334 553 552 335 558 557 556 -309 461 310 460 307 459 308 311 312 711 710 708 712 707 709 617 618 620 619 621 899 900 -314 319 315 313 317 316 318 242 243 241 458 457 456 -342 343 590 592 589 593 594 591 866 867 865 -346 348 347 280 276 275 279 277 278 233 232 234 235 734 735 738 -357 356 146 148 147 299 296 297 300 471 534 535 536 -383 382 525 520 521 524 523 522 890 889 886 885 888 887 891 892 808 804 806 807 811 805 810 809 -425 426 517 873 872 871 870 868 869 -454 455 453 502 504 505 503 500 391 390 393 392 389 684 683 685 -464 465 861 864 858 511 513 515 512 516 514 394 396 397 395 658 659 660 -466 467 863 862 860 859 666 665 664 663 841 838 844 839 842 840 845 843 109 852 850 854 853 851 -472 470 473 469 691 692 690 680 682 681 -480 478 197 108 104 107 106 105 645 647 778 774 777 775 776 772 773 715 717 718 713 714 716 -499 100 98 782 783 785 755 753 752 754 756 126 803 -562 561 671 674 588 587 586 438 437 874 878 880 877 879 876 875 725 727 -597 598 626 622 628 625 627 475 474 462 463 468 640 638 636 639 -604 605 606 599 596 595 600 637 635 634 654 -613 612 569 568 567 566 565 564 406 407 408 409 410 720 719 721 722 -624 623 518 519 831 829 830 828 112 110 111 91 90 94 93 92 667 668 -646 644 822 819 820 823 821 824 905 904 -656 657 121 123 124 122 120 419 420 423 418 424 422 421 669 -693 696 694 695 247 245 246 244 764 763 762 765 766 767 768 -746 140 139 136 141 137 138 330 329 325 328 327 326 481 479 883 884 -898 901 616 615 614 381 378 380 908 907 906 0 





OBJ=
5265.732
BEST_KNOWN=
0.000